c 
c U(n,d) graph
c graph gen seed     : 1088
c number of vertices : 60
c max number of edges: 1770
c Euclidean distance : 0.200000
c data structure     : sparse
c
c           Graph Stats
c number of vertices  : 60
c nonisolated vertices: 60
c number of edges     : 190
c edge density        : 0.107345
c max degree          : 13
c avg degree          : 6.33
c min degree          : 2
p col 60 190
e 1 60
e 1 42
e 1 35
e 1 25
e 1 20
e 1 7
e 2 56
e 2 38
e 2 28
e 2 22
e 2 19
e 2 18
e 3 59
e 3 52
e 3 44
e 3 40
e 3 39
e 3 29
e 3 14
e 3 12
e 4 60
e 4 58
e 4 13
e 5 53
e 5 48
e 5 47
e 5 46
e 5 23
e 5 15
e 6 56
e 6 53
e 6 51
e 6 48
e 6 46
e 6 45
e 6 41
e 6 38
e 6 34
e 6 15
e 7 60
e 7 42
e 7 35
e 7 25
e 7 20
e 8 57
e 8 53
e 8 51
e 8 48
e 8 45
e 8 41
e 8 40
e 8 34
e 8 15
e 9 37
e 9 26
e 9 19
e 9 17
e 9 10
e 10 37
e 10 26
e 10 23
e 10 17
e 11 52
e 11 39
e 11 31
e 11 30
e 11 14
e 11 12
e 12 52
e 12 39
e 12 31
e 12 14
e 13 60
e 13 58
e 14 59
e 14 57
e 14 52
e 14 40
e 14 39
e 14 29
e 15 57
e 15 53
e 15 51
e 15 48
e 15 47
e 15 46
e 15 45
e 15 41
e 15 34
e 15 23
e 16 56
e 16 54
e 16 51
e 16 45
e 16 41
e 16 34
e 16 32
e 17 37
e 17 28
e 17 26
e 17 19
e 18 36
e 18 22
e 19 37
e 19 28
e 19 26
e 20 60
e 20 42
e 20 25
e 21 55
e 21 43
e 21 30
e 21 24
e 22 38
e 22 36
e 23 48
e 23 47
e 23 46
e 24 55
e 24 43
e 24 30
e 25 60
e 25 42
e 25 35
e 25 33
e 26 37
e 26 28
e 27 49
e 27 36
e 27 35
e 27 33
e 28 37
e 29 59
e 29 50
e 29 44
e 29 40
e 30 43
e 31 54
e 31 52
e 31 45
e 32 54
e 32 45
e 33 49
e 33 36
e 33 35
e 34 57
e 34 53
e 34 51
e 34 45
e 34 41
e 35 49
e 35 42
e 35 36
e 36 49
e 38 56
e 38 51
e 39 59
e 39 52
e 40 59
e 40 57
e 40 53
e 40 48
e 40 44
e 41 57
e 41 53
e 41 51
e 41 48
e 41 46
e 41 45
e 42 60
e 43 55
e 44 59
e 44 53
e 44 50
e 45 57
e 45 51
e 46 53
e 46 51
e 46 48
e 46 47
e 47 53
e 47 48
e 48 57
e 48 53
e 51 57
e 51 56
e 51 53
e 52 59
e 52 57
e 53 57
